s td 76 17 116
b 1 27 31 41 60
b 2 15 27 36 60
b 3 1 24 27 60
b 4 27 31 60 108
b 5 27 52 56 60
b 6 27 48 60 101
b 7 27 34 46 80 92
b 8 14 30 54 71 105
b 9 37 55 59 75 105 110
b 10 23 37 55 75 105
b 11 23 55 75 103 105
b 12 19 23 50 55 88 103 105
b 13 7 19 23 25 50 81 88 103 105
b 14 7 14 19 23 25 30 50 71 81 88 105
b 15 60 62 73 97 113
b 16 7 11 25 50 61 71
b 17 25 30 32 33 71 88
b 18 2 25 30 65 71 88
b 19 7 25 50 66 71 74
b 20 7 30 50 64 88 109
b 21 7 10 25 26 30 50 71 88
b 22 7 25 30 50 71 88 91 99
b 23 1 6 8 16 20 29 40 42 67 68 83 85 89 104 107 114
b 24 6 16 20 22 29 42 47 67 68 72 83 85 89 104 107 114
b 25 6 16 20 22 28 29 42 47 67 68 72 79 82 87 89 104 114
b 26 6 16 20 28 39 42 47 67 68 79 82 87 89 94 95 114
b 27 6 16 20 39 42 67 68 79 87 89 91 94 95 114
b 28 6 16 20 39 42 67 68 74 79 87 91 94 95 114
b 29 6 16 20 39 42 61 67 68 74 79 87 91 94 95
b 30 6 16 20 32 39 61 67 68 74 79 87 91 94 95
b 31 10 16 20 32 39 61 67 68 74 79 87 91 94 95
b 32 2 10 16 32 39 61 67 68 74 79 87 91 94 95
b 33 2 10 32 39 45 58 61 67 68 69 74 79 87 91 93 94 95
b 34 2 10 32 39 45 58 61 67 68 69 74 91 93 94 95 115
b 35 2 10 32 39 45 58 61 64 67 69 74 91 93 94 95 115
b 36 2 10 32 39 45 58 61 64 69 74 91 93 102 115
b 37 2 10 25 30 32 45 58 61 64 71 74 88 91 102 115
b 38 7 10 25 30 45 50 58 61 64 71 74 88 91 102 115
b 39 7 25 30 45 50 58 71 81 88 102 115
b 40 7 23 25 30 50 58 71 81 88 102 115
b 41 7 19 23 25 30 50 58 71 81 88 102
b 42 7 14 19 23 25 30 50 58 71 81 88
b 43 2 10 32 39 45 51 58 61 69 74 79 87 91 93 94 95 111
b 44 39 45 51 58 69 79 87 93 94 95 96 111
b 45 13 39 45 51 69 79 93 94 95 96 111
b 46 28 39 47 82 84 94 95
b 47 6 16 20 22 28 29 42 47 49 53 72 79 82 87 89 104 114
b 48 22 28 29 47 49 53 72 79 82 87 104 106
b 49 22 28 47 49 53 72 82 87 100 104 106
b 50 21 22 47 72 83 85 107
b 51 1 6 8 16 20 29 36 40 42 68 83 85 89 104 107 114
b 52 1 6 8 16 20 29 36 40 42 83 85 86 89 104 107 114
b 53 1 6 8 16 20 29 36 40 78 83 85 86 89 104 107 114
b 54 1 6 8 16 20 29 36 40 63 78 83 85 86 104 107 114
b 55 1 6 8 12 16 20 29 36 40 63 78 83 85 86 104 107
b 56 1 6 8 9 12 20 29 36 40 63 78 83 85 86 104 107
b 57 1 5 6 8 9 12 29 36 40 63 78 83 85 86 104 107
b 58 1 5 8 9 12 18 29 36 40 63 70 78 83 85 86 104 107
b 59 1 5 8 9 12 18 36 40 63 70 73 78 85 86 92 98
b 60 1 5 9 12 18 27 34 36 63 70 73 76 78 86 92 98 113
b 61 3 27 34 63 76 92 113
b 62 27 34 38 76 86 92 113
b 63 1 5 9 12 18 27 34 36 62 70 73 76 77 78 92 98 113
b 64 1 5 9 12 27 34 36 60 62 73 76 77 78 92 98 113
b 65 12 34 43 60 73 77 113
b 66 9 27 34 48 60 73 76 77 92 113
b 67 27 34 52 60 73 76 77 78 92 113
b 68 5 34 57 60 73 77 113
b 69 27 60 76 77 98 108
b 70 18 27 34 62 73 76 77 80 92 98 113
b 71 8 17 40 73 85 92 98
b 72 5 8 9 12 18 29 40 44 63 70 78 83 85 86 104 107 116
b 73 8 18 29 40 44 70 83 85 104 107 112 116
b 74 8 40 44 70 83 85 90 104 107 112 116
b 75 4 8 36 40 68 83 107
b 76 1 8 35 40 67 83 107
1 4
2 64
3 64
4 69
5 67
6 66
7 70
8 14
9 10
10 11
11 12
12 13
13 14
14 42
15 64
16 38
17 37
18 37
19 38
20 38
21 38
22 38
23 24
23 51
23 76
24 25
24 50
25 26
25 47
26 27
26 46
27 28
28 29
29 30
30 31
31 32
32 33
33 34
33 43
34 35
35 36
36 37
37 38
38 39
39 40
40 41
41 42
43 44
44 45
47 48
48 49
51 52
51 75
52 53
53 54
54 55
55 56
56 57
57 58
58 59
58 72
59 60
59 71
60 61
60 62
60 63
63 64
63 70
64 65
64 66
64 67
64 68
64 69
72 73
73 74
